# Solution for model packing
# Objective value = 1717.26
alpha[0,0] 1
alpha[0,1] 0
alpha[0,2] 0
alpha[0,3] 0
alpha[0,4] 0
alpha[1,1] 1
alpha[1,2] 0
alpha[1,3] 0
alpha[1,4] 0
alpha[2,2] 1
alpha[2,3] 1
alpha[2,4] 0
alpha[3,3] 0
alpha[3,4] 0
alpha[4,4] 1
beta[0,0] 1
beta[0,1] 0
beta[0,2] 0
beta[0,3] 0
beta[0,4] 0
beta[1,0] 0
beta[1,1] 1
beta[1,2] 0
beta[1,3] 0
beta[1,4] 0
beta[2,0] 0
beta[2,1] 0
beta[2,2] 1
beta[2,3] 0
beta[2,4] 1
beta[3,0] 0
beta[3,1] 0
beta[3,2] 0
beta[3,3] 0
beta[3,4] 0
beta[4,0] 0
beta[4,1] 0
beta[4,2] 0
beta[4,3] 0
beta[4,4] 0
gamma[0,0] 1
gamma[0,1] 1
gamma[0,2] 1
gamma[0,3] 0
gamma[0,4] 0
gamma[1,1] 0
gamma[1,2] 0
gamma[1,3] 0
gamma[1,4] 0
gamma[2,2] 0
gamma[2,3] 0
gamma[2,4] 0
gamma[3,3] 0
gamma[3,4] 0
gamma[4,4] 0
delta[0,1,0] 0
delta[0,2,0] 0
delta[0,2,1] 0
delta[0,3,0] 0
delta[0,3,1] 0
delta[0,3,2] 1
delta[0,4,0] 0
delta[0,4,1] 0
delta[0,4,2] 0
delta[0,4,3] 0
delta[1,2,1] 0
delta[1,3,1] 0
delta[1,3,2] 0
delta[1,4,1] 0
delta[1,4,2] 0
delta[1,4,3] 0
delta[2,3,2] 0
delta[2,4,2] 0
delta[2,4,3] 0
delta[3,4,3] 0
a[0,0,0,0] 1
a[0,1,0,0] 0
a[1,1,0,0] 0
a[0,2,0,0] 0
a[1,2,0,0] 0
a[2,2,0,0] 0
a[0,3,0,0] 0
a[1,3,0,0] 0
a[2,3,0,0] 0
a[3,3,0,0] 0
a[0,4,0,0] 0
a[1,4,0,0] 0
a[2,4,0,0] 0
a[3,4,0,0] 0
a[4,4,0,0] 0
a[0,0,0,1] 0
a[0,1,0,1] 0
a[1,1,0,1] 0
a[0,2,0,1] 0
a[1,2,0,1] 0
a[2,2,0,1] 0
a[0,3,0,1] 0
a[1,3,0,1] 0
a[2,3,0,1] 0
a[3,3,0,1] 0
a[0,4,0,1] 0
a[1,4,0,1] 0
a[2,4,0,1] 0
a[3,4,0,1] 0
a[4,4,0,1] 0
a[0,0,0,2] 0
a[0,1,0,2] 0
a[1,1,0,2] 0
a[0,2,0,2] 0
a[1,2,0,2] 0
a[2,2,0,2] 0
a[0,3,0,2] 0
a[1,3,0,2] 0
a[2,3,0,2] 0
a[3,3,0,2] 0
a[0,4,0,2] 0
a[1,4,0,2] 0
a[2,4,0,2] 0
a[3,4,0,2] 0
a[4,4,0,2] 0
a[0,0,0,3] 0
a[0,1,0,3] 0
a[1,1,0,3] 0
a[0,2,0,3] 0
a[1,2,0,3] 0
a[2,2,0,3] 0
a[0,3,0,3] 0
a[1,3,0,3] 0
a[2,3,0,3] 0
a[3,3,0,3] 0
a[0,4,0,3] 0
a[1,4,0,3] 0
a[2,4,0,3] 0
a[3,4,0,3] 0
a[4,4,0,3] 0
a[0,0,0,4] 0
a[0,1,0,4] 0
a[1,1,0,4] 0
a[0,2,0,4] 0
a[1,2,0,4] 0
a[2,2,0,4] 0
a[0,3,0,4] 0
a[1,3,0,4] 0
a[2,3,0,4] 0
a[3,3,0,4] 0
a[0,4,0,4] 0
a[1,4,0,4] 0
a[2,4,0,4] 0
a[3,4,0,4] 0
a[4,4,0,4] 0
a[0,0,1,1] 0
a[0,1,1,1] 1
a[1,1,1,1] 0
a[0,2,1,1] 0
a[1,2,1,1] 0
a[2,2,1,1] 0
a[0,3,1,1] 0
a[1,3,1,1] 0
a[2,3,1,1] 0
a[3,3,1,1] 0
a[0,4,1,1] 0
a[1,4,1,1] 0
a[2,4,1,1] 0
a[3,4,1,1] 0
a[4,4,1,1] 0
a[0,0,1,2] 0
a[0,1,1,2] 0
a[1,1,1,2] 0
a[0,2,1,2] 0
a[1,2,1,2] 0
a[2,2,1,2] 0
a[0,3,1,2] 0
a[1,3,1,2] 0
a[2,3,1,2] 0
a[3,3,1,2] 0
a[0,4,1,2] 0
a[1,4,1,2] 0
a[2,4,1,2] 0
a[3,4,1,2] 0
a[4,4,1,2] 0
a[0,0,1,3] 0
a[0,1,1,3] 0
a[1,1,1,3] 0
a[0,2,1,3] 0
a[1,2,1,3] 0
a[2,2,1,3] 0
a[0,3,1,3] 0
a[1,3,1,3] 0
a[2,3,1,3] 0
a[3,3,1,3] 0
a[0,4,1,3] 0
a[1,4,1,3] 0
a[2,4,1,3] 0
a[3,4,1,3] 0
a[4,4,1,3] 0
a[0,0,1,4] 0
a[0,1,1,4] 0
a[1,1,1,4] 0
a[0,2,1,4] 0
a[1,2,1,4] 0
a[2,2,1,4] 0
a[0,3,1,4] 0
a[1,3,1,4] 0
a[2,3,1,4] 0
a[3,3,1,4] 0
a[0,4,1,4] 0
a[1,4,1,4] 0
a[2,4,1,4] 0
a[3,4,1,4] 0
a[4,4,1,4] 0
a[0,0,2,2] 0
a[0,1,2,2] 0
a[1,1,2,2] 0
a[0,2,2,2] 1
a[1,2,2,2] 0
a[2,2,2,2] 0
a[0,3,2,2] 0
a[1,3,2,2] 0
a[2,3,2,2] 0
a[3,3,2,2] 0
a[0,4,2,2] 0
a[1,4,2,2] 0
a[2,4,2,2] 0
a[3,4,2,2] 0
a[4,4,2,2] 0
a[0,0,2,3] 0
a[0,1,2,3] 0
a[1,1,2,3] 0
a[0,2,2,3] 1
a[1,2,2,3] 0
a[2,2,2,3] 0
a[0,3,2,3] 0
a[1,3,2,3] 0
a[2,3,2,3] 0
a[3,3,2,3] 0
a[0,4,2,3] 0
a[1,4,2,3] 0
a[2,4,2,3] 0
a[3,4,2,3] 0
a[4,4,2,3] 0
a[0,0,2,4] 0
a[0,1,2,4] 0
a[1,1,2,4] 0
a[0,2,2,4] 0
a[1,2,2,4] 0
a[2,2,2,4] 0
a[0,3,2,4] 0
a[1,3,2,4] 0
a[2,3,2,4] 0
a[3,3,2,4] 0
a[0,4,2,4] 0
a[1,4,2,4] 0
a[2,4,2,4] 0
a[3,4,2,4] 0
a[4,4,2,4] 0
a[0,0,3,3] 0
a[0,1,3,3] 0
a[1,1,3,3] 0
a[0,2,3,3] 0
a[1,2,3,3] 0
a[2,2,3,3] 0
a[0,3,3,3] 0
a[1,3,3,3] 0
a[2,3,3,3] 0
a[3,3,3,3] 0
a[0,4,3,3] 0
a[1,4,3,3] 0
a[2,4,3,3] 0
a[3,4,3,3] 0
a[4,4,3,3] 0
a[0,0,3,4] 0
a[0,1,3,4] 0
a[1,1,3,4] 0
a[0,2,3,4] 0
a[1,2,3,4] 0
a[2,2,3,4] 0
a[0,3,3,4] 0
a[1,3,3,4] 0
a[2,3,3,4] 0
a[3,3,3,4] 0
a[0,4,3,4] 0
a[1,4,3,4] 0
a[2,4,3,4] 0
a[3,4,3,4] 0
a[4,4,3,4] 0
a[0,0,4,4] 0
a[0,1,4,4] 0
a[1,1,4,4] 0
a[0,2,4,4] 1
a[1,2,4,4] 0
a[2,2,4,4] 0
a[0,3,4,4] 0
a[1,3,4,4] 0
a[2,3,4,4] 0
a[3,3,4,4] 0
a[0,4,4,4] 0
a[1,4,4,4] 0
a[2,4,4,4] 0
a[3,4,4,4] 0
a[4,4,4,4] 0
b[0,0,0] 0
b[0,0,1] 1
b[0,0,2] 0
b[0,1,0] 0
b[0,1,1] 0
b[0,1,2] 0
b[0,2,0] 0
b[0,2,1] 0
b[0,2,2] 0
b[0,3,0] 0
b[0,3,1] 0
b[0,3,2] 0
b[0,4,0] 0
b[0,4,1] 0
b[0,4,2] 0
b[1,0,0] 0
b[1,0,1] 1
b[1,0,2] 0
b[1,1,0] 0
b[1,1,1] 0
b[1,1,2] 0
b[1,2,0] 0
b[1,2,1] 0
b[1,2,2] 0
b[1,3,0] 0
b[1,3,1] 0
b[1,3,2] 0
b[1,4,0] 0
b[1,4,1] 0
b[1,4,2] 0
b[2,0,0] 0
b[2,0,1] 1
b[2,0,2] 0
b[2,1,0] 0
b[2,1,1] 0
b[2,1,2] 0
b[2,2,0] 0
b[2,2,1] 0
b[2,2,2] 0
b[2,3,0] 0
b[2,3,1] 0
b[2,3,2] 0
b[2,4,0] 0
b[2,4,1] 0
b[2,4,2] 0
b[3,0,0] 0
b[3,0,1] 1
b[3,0,2] 0
b[3,1,0] 0
b[3,1,1] 0
b[3,1,2] 0
b[3,2,0] 0
b[3,2,1] 0
b[3,2,2] 0
b[3,3,0] 0
b[3,3,1] 0
b[3,3,2] 0
b[3,4,0] 0
b[3,4,1] 0
b[3,4,2] 0
b[4,0,0] 0
b[4,0,1] 1
b[4,0,2] 0
b[4,1,0] 0
b[4,1,1] 0
b[4,1,2] 0
b[4,2,0] 0
b[4,2,1] 0
b[4,2,2] 0
b[4,3,0] 0
b[4,3,1] 0
b[4,3,2] 0
b[4,4,0] 0
b[4,4,1] 0
b[4,4,2] 0
Q[0] 25000
Q[1] 0
Q[2] 0
Q[3] 0
Q[4] 0
P[0] 12500
P[1] 0
P[2] 0
P[3] 0
P[4] 0
r[0] 1
r[1] 0
r[2] 0
r[3] 0
r[4] 0
w[0,0] 1
w[0,1] 1
w[0,2] 1
w[0,3] 0
w[0,4] 0
w[1,1] 0
w[1,2] 0
w[1,3] 0
w[1,4] 0
w[2,2] 0
w[2,3] 0
w[2,4] 0
w[3,3] 0
w[3,4] 0
w[4,4] 0
s[0] 1
s[1] 0
s[2] 0
s[3] 0
s[4] 0
sr[0] 1
sr[1] 0
sr[2] 0
sr[3] 0
sr[4] 0
z[0,0] 0
z[0,1] 12500
z[0,2] 0
z[1,0] 0
z[1,1] 0
z[1,2] 0
z[2,0] 0
z[2,1] 0
z[2,2] 0
z[3,0] 0
z[3,1] 0
z[3,2] 0
z[4,0] 0
z[4,1] 0
z[4,2] 0
x[0,0] 0
x[0,1] 1
x[0,2] 0
x[1,0] 0
x[1,1] 0
x[1,2] 0
x[2,0] 0
x[2,1] 0
x[2,2] 0
x[3,0] 0
x[3,1] 0
x[3,2] 0
x[4,0] 0
x[4,1] 0
x[4,2] 0
tp[0] 1
tp[1] 1
tp[2] 1
tp[3] 1
tp[4] 1
tn[0] 2
tn[1] 0
tn[2] 2
tn[3] 0
tn[4] 2
